!BLYP D3BJ def2-SVP NEB-TS NumFreq xyzfile

%Freq
Temp 298.15
end

%pal
nprocs 6
end

%NEB
NEB_END_XYZFILE "d2.xyz"
end

*xyzfile 0 1 d1.xyz
