!BLYP def2-SVP OptTS Freq xyzfile

%pal
nprocs 6
end

%Freq
Temp 298.15
end

*xyzfile 0 1 ts_hydr.xyz
