!BLYP D3BJ def2-TZVP def2/J RIJCOSX Opt NumFreq xyzfile
%geom
NumHess true
end

%Freq
Temp 298.15
end

%pal
nprocs 6
end

*xyzfile 0 1 acetone1.xyz
