!BLYP D3BJ def2-TZVP def2/J RIJCOSX OptTS NumFreq xyzfile
%geom
NumHess true
Calc_hess true
TS_Mode {B 3 9}
end
end

%Freq
Temp 298.15
end

%pal
nprocs 6
end

*xyzfile 0 1 ts1.xyz
