!BLYP D3BJ def2-TZVP Opt NumFreq xyzfile

%Freq
Temp 298.15
end

%pal
nprocs 6
end

*xyzfile 0 1 init_acetone.xyz
